c description: Random 3-CNF over 19 variables and 81 clauses
c generator: CNFgen (0.9.2)
c copyright: (C) 2012-2022 Massimo Lauria <massimo.lauria@uniroma1.it>
c url: https://massimolauria.net/cnfgen
c command line: cnfgen --output CNF_4.28/19_bit_81_749.cnf randkcnf 3 19 81
c
p cnf 19 81
-4 -13 18 0
2 -17 18 0
-3 -6 9 0
8 -9 -17 0
-1 6 -17 0
-4 8 -19 0
-3 4 5 0
1 -9 -10 0
1 5 -10 0
4 -5 -19 0
1 -6 8 0
10 15 16 0
2 5 9 0
-1 11 -14 0
4 7 -16 0
-11 13 -16 0
10 -11 19 0
1 -16 18 0
5 6 -19 0
2 -8 -10 0
-3 -9 -13 0
1 3 10 0
2 -12 -18 0
7 11 -19 0
4 17 19 0
-1 3 17 0
-5 -11 -14 0
2 -14 19 0
-3 -4 11 0
-2 11 19 0
5 6 13 0
-12 16 18 0
-4 -7 -15 0
9 -15 18 0
7 -18 19 0
4 -5 19 0
4 7 11 0
-5 -7 10 0
-4 -6 -15 0
-9 14 19 0
-12 16 19 0
-5 7 -12 0
-3 4 -5 0
5 16 -19 0
8 9 15 0
4 10 -13 0
-11 14 16 0
-4 -7 -16 0
11 -12 18 0
6 14 -15 0
15 -18 -19 0
-3 4 -13 0
-2 5 13 0
1 6 -18 0
-6 -7 -8 0
4 11 13 0
3 -14 -17 0
2 12 -14 0
-14 15 -19 0
-5 6 11 0
2 7 -12 0
-2 -18 -19 0
-4 8 -10 0
-9 -12 -18 0
1 -17 -19 0
5 12 17 0
-2 7 13 0
4 -9 16 0
1 2 -4 0
-8 11 -14 0
5 9 -17 0
-3 -15 16 0
7 -11 -12 0
-1 11 13 0
7 13 -17 0
-6 13 15 0
1 -6 10 0
1 8 -15 0
9 17 19 0
-1 -2 14 0
11 -13 -14 0
